NAME : X-n237-k14
COMMENT : "Generated by Uchoa, Pecin, Pessoa, Poggi, Subramanian, and Vidal (2013)"
TYPE : CVRP
DIMENSION : 237
EDGE_WEIGHT_TYPE : EUC_2D
CAPACITY : 18
NODE_COORD_SECTION
1 0 0
2 80 386
3 521 652
4 597 936
5 836 69
6 503 987
7 618 169
8 115 662
9 312 175
10 78 83
11 364 317
12 12 454
13 980 537
14 403 383
15 144 443
16 739 464
17 886 511
18 904 106
19 794 539
20 821 608
21 781 347
22 336 490
23 101 736
24 365 68
25 618 684
26 282 286
27 311 806
28 557 793
29 54 50
30 651 264
31 619 661
32 156 994
33 950 369
34 183 707
35 673 856
36 5 651
37 867 449
38 946 914
39 75 82
40 522 8
41 573 493
42 833 699
43 881 677
44 201 77
45 536 593
46 67 895
47 99 113
48 120 133
49 428 231
50 701 845
51 190 508
52 431 218
53 626 782
54 113 914
55 569 117
56 865 639
57 708 9
58 511 977
59 104 838
60 229 467
61 956 568
62 431 929
63 615 707
64 913 42
65 854 504
66 236 176
67 377 404
68 380 468
69 590 752
70 620 146
71 616 746
72 675 114
73 556 640
74 99 777
75 12 194
76 920 116
77 846 384
78 525 23
79 199 348
80 813 875
81 757 593
82 573 358
83 264 448
84 132 556
85 289 765
86 246 267
87 245 876
88 235 592
89 648 790
90 378 754
91 636 653
92 555 181
93 738 446
94 130 836
95 882 942
96 102 787
97 669 905
98 490 45
99 883 547
100 971 638
101 256 227
102 775 935
103 489 411
104 826 228
105 514 866
106 129 566
107 7 118
108 415 820
109 161 160
110 27 21
111 695 395
112 64 937
113 121 847
114 770 896
115 264 607
116 174 871
117 20 546
118 986 803
119 379 259
120 728 180
121 686 273
122 133 869
123 157 499
124 784 186
125 649 934
126 999 236
127 670 615
128 978 479
129 646 823
130 193 565
131 440 534
132 26 411
133 114 126
134 661 528
135 946 326
136 223 602
137 695 420
138 172 317
139 116 701
140 940 438
141 732 172
142 824 136
143 837 507
144 125 570
145 773 241
146 542 708
147 441 235
148 808 413
149 68 374
150 582 768
151 220 519
152 593 651
153 71 712
154 26 569
155 918 629
156 165 731
157 941 282
158 285 379
159 227 977
160 788 366
161 33 507
162 597 983
163 299 617
164 799 35
165 414 697
166 529 178
167 235 743
168 118 484
169 349 554
170 477 280
171 591 189
172 743 221
173 807 670
174 163 621
175 874 932
176 245 24
177 960 27
178 139 44
179 45 584
180 281 434
181 684 501
182 284 414
183 20 905
184 80 256
185 57 354
186 306 107
187 167 289
188 952 66
189 862 741
190 240 516
191 806 277
192 782 700
193 82 208
194 951 550
195 710 44
196 537 764
197 407 191
198 629 133
199 608 911
200 760 125
201 727 517
202 295 706
203 679 836
204 73 420
205 637 903
206 297 723
207 55 920
208 676 550
209 933 456
210 812 155
211 326 903
212 846 181
213 116 175
214 344 992
215 28 667
216 439 245
217 891 450
218 224 732
219 156 734
220 390 441
221 663 560
222 115 896
223 655 766
224 210 731
225 42 176
226 505 517
227 923 66
228 490 844
229 342 859
230 210 644
231 313 79
232 399 775
233 79 559
234 876 843
235 631 889
236 182 284
237 471 120
PICKUP_AND_DELIVERY_SECTION
1 0 0 1000000000 0 0 0
2 0 0 1000000000 0 0.7927 0.2073
3 0 0 1000000000 0 0.2009 0.7991
4 0 0 1000000000 0 0.3622 0.6378
5 0 0 1000000000 0 0.9175 0.08254
6 0 0 1000000000 0 0.4904 0.5096
7 0 0 1000000000 0 0.7265 0.2735
8 0 0 1000000000 0 0.8263 0.1737
9 0 0 1000000000 0 0.4391 0.5609
10 0 0 1000000000 0 0.06024 0.9398
11 0 0 1000000000 0 0.1291 0.8709
12 0 0 1000000000 0 0.9736 0.02643
13 0 0 1000000000 0 0.452 0.548
14 0 0 1000000000 0 0.04963 0.9504
15 0 0 1000000000 0 0.6749 0.3251
16 0 0 1000000000 0 0.3721 0.6279
17 0 0 1000000000 0 0.4233 0.5767
18 0 0 1000000000 0 0.8827 0.1173
19 0 0 1000000000 0 0.3212 0.6788
20 0 0 1000000000 0 0.2594 0.7406
21 0 0 1000000000 0 0.5557 0.4443
22 0 0 1000000000 0 0.3143 0.6857
23 0 0 1000000000 0 0.8628 0.1372
24 0 0 1000000000 0 0.8137 0.1863
25 0 0 1000000000 0 0.09649 0.9035
26 0 0 1000000000 0 0.01399 0.986
27 0 0 1000000000 0 0.6141 0.3859
28 0 0 1000000000 0 0.2976 0.7024
29 0 0 1000000000 0 0.07407 0.9259
30 0 0 1000000000 0 0.5945 0.4055
31 0 0 1000000000 0 0.06354 0.9365
32 0 0 1000000000 0 0.8431 0.1569
33 0 0 1000000000 0 0.6116 0.3884
34 0 0 1000000000 0 0.7412 0.2588
35 0 0 1000000000 0 0.2138 0.7862
36 0 0 1000000000 0 0.9923 0.00768
37 0 0 1000000000 0 0.4821 0.5179
38 0 0 1000000000 0 0.03383 0.9662
39 0 0 1000000000 0 0.08537 0.9146
40 0 0 1000000000 0 0.9847 0.01533
41 0 0 1000000000 0 0.1396 0.8604
42 0 0 1000000000 0 0.1609 0.8391
43 0 0 1000000000 0 0.2316 0.7684
44 0 0 1000000000 0 0.6169 0.3831
45 0 0 1000000000 0 0.09612 0.9039
46 0 0 1000000000 0 0.9251 0.07486
47 0 0 1000000000 0 0.1239 0.8761
48 0 0 1000000000 0 0.09774 0.9023
49 0 0 1000000000 0 0.4603 0.5397
50 0 0 1000000000 0 0.1704 0.8296
51 0 0 1000000000 0 0.626 0.374
52 0 0 1000000000 0 0.4942 0.5058
53 0 0 1000000000 0 0.1995 0.8005
54 0 0 1000000000 0 0.8764 0.1236
55 0 0 1000000000 0 0.7944 0.2056
56 0 0 1000000000 0 0.2613 0.7387
57 0 0 1000000000 0 0.9873 0.01271
58 0 0 1000000000 0 0.477 0.523
59 0 0 1000000000 0 0.8759 0.1241
60 0 0 1000000000 0 0.5096 0.4904
61 0 0 1000000000 0 0.4059 0.5941
62 0 0 1000000000 0 0.5361 0.4639
63 0 0 1000000000 0 0.1301 0.8699
64 0 0 1000000000 0 0.954 0.046
65 0 0 1000000000 0 0.4098 0.5902
66 0 0 1000000000 0 0.2542 0.7458
67 0 0 1000000000 0 0.06683 0.9332
68 0 0 1000000000 0 0.188 0.812
69 0 0 1000000000 0 0.2154 0.7846
70 0 0 1000000000 0 0.7645 0.2355
71 0 0 1000000000 0 0.1743 0.8257
72 0 0 1000000000 0 0.8311 0.1689
73 0 0 1000000000 0 0.1312 0.8688
74 0 0 1000000000 0 0.8726 0.1274
75 0 0 1000000000 0 0.9381 0.06186
76 0 0 1000000000 0 0.8739 0.1261
77 0 0 1000000000 0 0.5461 0.4539
78 0 0 1000000000 0 0.9562 0.04381
79 0 0 1000000000 0 0.4282 0.5718
80 0 0 1000000000 0 0.07086 0.9291
81 0 0 1000000000 0 0.2166 0.7834
82 0 0 1000000000 0 0.3752 0.6248
83 0 0 1000000000 0 0.4107 0.5893
84 0 0 1000000000 0 0.7626 0.2374
85 0 0 1000000000 0 0.6222 0.3778
86 0 0 1000000000 0 0.07865 0.9213
87 0 0 1000000000 0 0.7203 0.2797
88 0 0 1000000000 0 0.603 0.397
89 0 0 1000000000 0 0.1797 0.8203
90 0 0 1000000000 0 0.4987 0.5013
91 0 0 1000000000 0 0.02603 0.974
92 0 0 1000000000 0 0.6739 0.3261
93 0 0 1000000000 0 0.3957 0.6043
94 0 0 1000000000 0 0.8445 0.1555
95 0 0 1000000000 0 0.06369 0.9363
96 0 0 1000000000 0 0.8704 0.1296
97 0 0 1000000000 0 0.2608 0.7392
98 0 0 1000000000 0 0.9082 0.09184
99 0 0 1000000000 0 0.3805 0.6195
100 0 0 1000000000 0 0.3429 0.6571
101 0 0 1000000000 0 0.1133 0.8867
102 0 0 1000000000 0 0.1711 0.8289
103 0 0 1000000000 0 0.1595 0.8405
104 0 0 1000000000 0 0.724 0.276
105 0 0 1000000000 0 0.4065 0.5935
106 0 0 1000000000 0 0.7721 0.2279
107 0 0 1000000000 0 0.9407 0.05932
108 0 0 1000000000 0 0.4939 0.5061
109 0 0 1000000000 0 0.00621 0.9938
110 0 0 1000000000 0 0.2222 0.7778
111 0 0 1000000000 0 0.4317 0.5683
112 0 0 1000000000 0 0.9317 0.0683
113 0 0 1000000000 0 0.8571 0.1429
114 0 0 1000000000 0 0.1406 0.8594
115 0 0 1000000000 0 0.5651 0.4349
116 0 0 1000000000 0 0.8002 0.1998
117 0 0 1000000000 0 0.9634 0.03663
118 0 0 1000000000 0 0.1856 0.8144
119 0 0 1000000000 0 0.3166 0.6834
120 0 0 1000000000 0 0.7527 0.2473
121 0 0 1000000000 0 0.602 0.398
122 0 0 1000000000 0 0.847 0.153
123 0 0 1000000000 0 0.6854 0.3146
124 0 0 1000000000 0 0.7628 0.2372
125 0 0 1000000000 0 0.3051 0.6949
126 0 0 1000000000 0 0.7638 0.2362
127 0 0 1000000000 0 0.08209 0.9179
128 0 0 1000000000 0 0.5102 0.4898
129 0 0 1000000000 0 0.2151 0.7849
130 0 0 1000000000 0 0.6584 0.3416
131 0 0 1000000000 0 0.176 0.824
132 0 0 1000000000 0 0.9367 0.06326
133 0 0 1000000000 0 0.09524 0.9048
134 0 0 1000000000 0 0.2012 0.7988
135 0 0 1000000000 0 0.6554 0.3446
136 0 0 1000000000 0 0.6296 0.3704
137 0 0 1000000000 0 0.3957 0.6043
138 0 0 1000000000 0 0.4574 0.5426
139 0 0 1000000000 0 0.8345 0.1655
140 0 0 1000000000 0 0.534 0.466
141 0 0 1000000000 0 0.765 0.235
142 0 0 1000000000 0 0.835 0.165
143 0 0 1000000000 0 0.3943 0.6057
144 0 0 1000000000 0 0.7807 0.2193
145 0 0 1000000000 0 0.6882 0.3118
146 0 0 1000000000 0 0.2345 0.7655
147 0 0 1000000000 0 0.4671 0.5329
148 0 0 1000000000 0 0.4889 0.5111
149 0 0 1000000000 0 0.8182 0.1818
150 0 0 1000000000 0 0.2422 0.7578
151 0 0 1000000000 0 0.5761 0.4239
152 0 0 1000000000 0 0.08909 0.9109
153 0 0 1000000000 0 0.9003 0.09972
154 0 0 1000000000 0 0.9543 0.04569
155 0 0 1000000000 0 0.3148 0.6852
156 0 0 1000000000 0 0.7743 0.2257
157 0 0 1000000000 0 0.7003 0.2997
158 0 0 1000000000 0 0.248 0.752
159 0 0 1000000000 0 0.7677 0.2323
160 0 0 1000000000 0 0.5355 0.4645
161 0 0 1000000000 0 0.9349 0.06509
162 0 0 1000000000 0 0.3927 0.6073
163 0 0 1000000000 0 0.5154 0.4846
164 0 0 1000000000 0 0.9562 0.0438
165 0 0 1000000000 0 0.406 0.594
166 0 0 1000000000 0 0.6635 0.3365
167 0 0 1000000000 0 0.6837 0.3163
168 0 0 1000000000 0 0.7562 0.2438
169 0 0 1000000000 0 0.37 0.63
170 0 0 1000000000 0 0.413 0.587
171 0 0 1000000000 0 0.6802 0.3198
172 0 0 1000000000 0 0.7026 0.2974
173 0 0 1000000000 0 0.1698 0.8302
174 0 0 1000000000 0 0.7375 0.2625
175 0 0 1000000000 0 0.06223 0.9378
176 0 0 1000000000 0 0.902 0.09796
177 0 0 1000000000 0 0.9719 0.02813
178 0 0 1000000000 0 0.6835 0.3165
179 0 0 1000000000 0 0.9229 0.07705
180 0 0 1000000000 0 0.3525 0.6475
181 0 0 1000000000 0 0.2675 0.7325
182 0 0 1000000000 0 0.314 0.686
183 0 0 1000000000 0 0.9779 0.0221
184 0 0 1000000000 0 0.6875 0.3125
185 0 0 1000000000 0 0.839 0.161
186 0 0 1000000000 0 0.6503 0.3497
187 0 0 1000000000 0 0.4221 0.5779
188 0 0 1000000000 0 0.9307 0.06933
189 0 0 1000000000 0 0.1404 0.8596
190 0 0 1000000000 0 0.5349 0.4651
191 0 0 1000000000 0 0.6563 0.3437
192 0 0 1000000000 0 0.1049 0.8951
193 0 0 1000000000 0 0.6058 0.3942
194 0 0 1000000000 0 0.4217 0.5783
195 0 0 1000000000 0 0.938 0.06197
196 0 0 1000000000 0 0.2971 0.7029
197 0 0 1000000000 0 0.5307 0.4693
198 0 0 1000000000 0 0.7886 0.2114
199 0 0 1000000000 0 0.3326 0.6674
200 0 0 1000000000 0 0.8355 0.1645
201 0 0 1000000000 0 0.2889 0.7111
202 0 0 1000000000 0 0.5822 0.4178
203 0 0 1000000000 0 0.1878 0.8122
204 0 0 1000000000 0 0.8262 0.1738
205 0 0 1000000000 0 0.2946 0.7054
206 0 0 1000000000 0 0.5892 0.4108
207 0 0 1000000000 0 0.9402 0.05978
208 0 0 1000000000 0 0.1864 0.8136
209 0 0 1000000000 0 0.5113 0.4887
210 0 0 1000000000 0 0.8091 0.1909
211 0 0 1000000000 0 0.639 0.361
212 0 0 1000000000 0 0.7861 0.2139
213 0 0 1000000000 0 0.3371 0.6629
214 0 0 1000000000 0 0.6532 0.3468
215 0 0 1000000000 0 0.958 0.04198
216 0 0 1000000000 0 0.4419 0.5581
217 0 0 1000000000 0 0.4949 0.5051
218 0 0 1000000000 0 0.694 0.306
219 0 0 1000000000 0 0.7875 0.2125
220 0 0 1000000000 0 0.1156 0.8844
221 0 0 1000000000 0 0.1554 0.8446
222 0 0 1000000000 0 0.8717 0.1283
223 0 0 1000000000 0 0.1449 0.8551
224 0 0 1000000000 0 0.7127 0.2873
225 0 0 1000000000 0 0.7614 0.2386
226 0 0 1000000000 0 0.02321 0.9768
227 0 0 1000000000 0 0.9285 0.07151
228 0 0 1000000000 0 0.4194 0.5806
229 0 0 1000000000 0 0.6019 0.3981
230 0 0 1000000000 0 0.6739 0.3261
231 0 0 1000000000 0 0.7476 0.2524
232 0 0 1000000000 0 0.4852 0.5148
233 0 0 1000000000 0 0.8587 0.1413
234 0 0 1000000000 0 0.03767 0.9623
235 0 0 1000000000 0 0.2902 0.7098
236 0 0 1000000000 0 0.3592 0.6408
237 0 0 1000000000 0 0.7452 0.2548
